    1 0.46014E-21     0.00876  1.0   0    0.00   0.65335E-30   0.00000E+00   0.00000E+00   0.13067E-29   0.00000E+00   0.00000E+00   0.00000E+00   0.00000E+00   0.00000E+00   0.00000E+00   0.00000E+00   0.00000E+00   0.00000E+00   0.00000E+00   0.00000E+00   0.00000E+00   0.00000E+00   0.00000E+00   0.00000E+00   0.00000E+00   0.00000E+00   0.15931E-27   0.00000E+00
    2 0.20188E-19     0.00936  1.0   0    0.00   0.34989E-28   0.00000E+00   0.00000E+00   0.69978E-28   0.00000E+00   0.00000E+00   0.00000E+00   0.00000E+00   0.00000E+00   0.00000E+00   0.00000E+00   0.00000E+00   0.00000E+00   0.00000E+00   0.00000E+00   0.00000E+00   0.00000E+00   0.00000E+00   0.00000E+00   0.00000E+00   0.00000E+00   0.85314E-26   0.00000E+00
    3 0.77554E-18     0.01000  1.0   0    0.00   0.16407E-26   0.00000E+00   0.00000E+00   0.32814E-26   0.00000E+00   0.00000E+00   0.00000E+00   0.00000E+00   0.00000E+00   0.00000E+00   0.00000E+00   0.00000E+00   0.00000E+00   0.00000E+00   0.00000E+00   0.00000E+00   0.00000E+00   0.00000E+00   0.00000E+00   0.00000E+00   0.00000E+00   0.40005E-24   0.00000E+00
    4 0.26087E-16     0.01069  1.0   0    0.00   0.67364E-25   0.00000E+00   0.00000E+00   0.13473E-24   0.00000E+00   0.00000E+00   0.00000E+00   0.00000E+00   0.00000E+00   0.00000E+00   0.00000E+00   0.00000E+00   0.00000E+00   0.00000E+00   0.00000E+00   0.00000E+00   0.00000E+00   0.00000E+00   0.00000E+00   0.00000E+00   0.00000E+00   0.16425E-22   0.00000E+00
    5 0.76830E-15     0.01142  1.0   0    0.00   0.24217E-23   0.00000E+00   0.00000E+00   0.48434E-23   0.00000E+00   0.00000E+00   0.00000E+00   0.00000E+00   0.00000E+00   0.00000E+00   0.00000E+00   0.00000E+00   0.00000E+00   0.00000E+00   0.00000E+00   0.00000E+00   0.00000E+00   0.00000E+00   0.00000E+00   0.00000E+00   0.00000E+00   0.59049E-21   0.00000E+00
    6 0.19813E-13     0.01221  1.0   0    0.00   0.76229E-22   0.00000E+00   0.00000E+00   0.15246E-21   0.00000E+00   0.00000E+00   0.00000E+00   0.00000E+00   0.00000E+00   0.00000E+00   0.00000E+00   0.00000E+00   0.00000E+00   0.00000E+00   0.00000E+00   0.00000E+00   0.00000E+00   0.00000E+00   0.00000E+00   0.00000E+00   0.00000E+00   0.18587E-19   0.00000E+00
    7 0.44737E-12     0.01304  1.0   0    0.00   0.21010E-20   0.00000E+00   0.00000E+00   0.42020E-20   0.00000E+00   0.00000E+00   0.00000E+00   0.00000E+00   0.00000E+00   0.00000E+00   0.00000E+00   0.00000E+00   0.00000E+00   0.00000E+00   0.00000E+00   0.00000E+00   0.00000E+00   0.00000E+00   0.00000E+00   0.00000E+00   0.00000E+00   0.51228E-18   0.00000E+00
    8 0.88448E-11     0.01394  1.0   0    0.00   0.50702E-19   0.00000E+00   0.00000E+00   0.10140E-18   0.00000E+00   0.00000E+00   0.00000E+00   0.00000E+00   0.00000E+00   0.00000E+00   0.00000E+00   0.00000E+00   0.00000E+00   0.00000E+00   0.00000E+00   0.00000E+00   0.00000E+00   0.00000E+00   0.00000E+00   0.00000E+00   0.00000E+00   0.12363E-16   0.00000E+00
    9 0.15311E-09     0.01490  1.0   0    0.00   0.10713E-17   0.00000E+00   0.00000E+00   0.21427E-17   0.00000E+00   0.00000E+00   0.00000E+00   0.00000E+00   0.00000E+00   0.00000E+00   0.00000E+00   0.00000E+00   0.00000E+00   0.00000E+00   0.00000E+00   0.00000E+00   0.00000E+00   0.00000E+00   0.00000E+00   0.00000E+00   0.00000E+00   0.26123E-15   0.00000E+00
   10 0.23208E-08     0.01592  1.0   0    0.00   0.19822E-16   0.00000E+00   0.00000E+00   0.39643E-16   0.00000E+00   0.00000E+00   0.00000E+00   0.00000E+00   0.00000E+00   0.00000E+00   0.00000E+00   0.00000E+00   0.00000E+00   0.00000E+00   0.00000E+00   0.00000E+00   0.00000E+00   0.00000E+00   0.00000E+00   0.00000E+00   0.00000E+00   0.48331E-14   0.00000E+00
   11 0.30801E-07     0.01702  1.0   0    0.00   0.32111E-15   0.00000E+00   0.00000E+00   0.64221E-15   0.00000E+00   0.00000E+00   0.00000E+00   0.00000E+00   0.00000E+00   0.00000E+00   0.00000E+00   0.00000E+00   0.00000E+00   0.00000E+00   0.00000E+00   0.00000E+00   0.00000E+00   0.00000E+00   0.00000E+00   0.00000E+00   0.00000E+00   0.78295E-13   0.00000E+00
   12 0.35792E-06     0.01819  1.0   0    0.00   0.45547E-14   0.00000E+00   0.00000E+00   0.91094E-14   0.00000E+00   0.00000E+00   0.00000E+00   0.00000E+00   0.00000E+00   0.00000E+00   0.00000E+00   0.00000E+00   0.00000E+00   0.00000E+00   0.00000E+00   0.00000E+00   0.00000E+00   0.00000E+00   0.00000E+00   0.00000E+00   0.00000E+00   0.11106E-11   0.00000E+00
   13 0.36418E-05     0.01944  1.0   0    0.00   0.56568E-13   0.00000E+00   0.00000E+00   0.11314E-12   0.00000E+00   0.00000E+00   0.00000E+00   0.00000E+00   0.00000E+00   0.00000E+00   0.00000E+00   0.00000E+00   0.00000E+00   0.00000E+00   0.00000E+00   0.00000E+00   0.00000E+00   0.00000E+00   0.00000E+00   0.00000E+00   0.00000E+00   0.13793E-10   0.00000E+00
   14 0.32445E-04     0.02077  1.0   0    0.00   0.61516E-12   0.00000E+00   0.00000E+00   0.12303E-11   0.00000E+00   0.00000E+00   0.00000E+00   0.00000E+00   0.00000E+00   0.00000E+00   0.00000E+00   0.00000E+00   0.00000E+00   0.00000E+00   0.00000E+00   0.00000E+00   0.00000E+00   0.00000E+00   0.00000E+00   0.00000E+00   0.00000E+00   0.14999E-09   0.00000E+00
   15 0.25310E-03     0.02220  1.0   0    0.00   0.58574E-11   0.00000E+00   0.00000E+00   0.11715E-10   0.00000E+00   0.00000E+00   0.00000E+00   0.00000E+00   0.00000E+00   0.00000E+00   0.00000E+00   0.00000E+00   0.00000E+00   0.00000E+00   0.00000E+00   0.00000E+00   0.00000E+00   0.00000E+00   0.00000E+00   0.00000E+00   0.00000E+00   0.14282E-08   0.00000E+00
   16 0.17287E-02     0.02372  1.0   0    0.00   0.48834E-10   0.00000E+00   0.00000E+00   0.97668E-10   0.00000E+00   0.00000E+00   0.00000E+00   0.00000E+00   0.00000E+00   0.00000E+00   0.00000E+00   0.00000E+00   0.00000E+00   0.00000E+00   0.00000E+00   0.00000E+00   0.00000E+00   0.00000E+00   0.00000E+00   0.00000E+00   0.00000E+00   0.11907E-07   0.00000E+00
   17 0.10339E-01     0.02535  1.0   0    0.00   0.35649E-09   0.00000E+00   0.00000E+00   0.71298E-09   0.00000E+00   0.00000E+00   0.00000E+00   0.00000E+00   0.00000E+00   0.00000E+00   0.00000E+00   0.00000E+00   0.00000E+00   0.00000E+00   0.00000E+00   0.00000E+00   0.00000E+00   0.00000E+00   0.00000E+00   0.00000E+00   0.00000E+00   0.86923E-07   0.00000E+00
   18 0.54138E-01     0.02710  1.0   0    0.00   0.22786E-08   0.00000E+00   0.00000E+00   0.45572E-08   0.00000E+00   0.00000E+00   0.00000E+00   0.00000E+00   0.00000E+00   0.00000E+00   0.00000E+00   0.00000E+00   0.00000E+00   0.00000E+00   0.00000E+00   0.00000E+00   0.00000E+00   0.00000E+00   0.00000E+00   0.00000E+00   0.00000E+00   0.55559E-06   0.00000E+00
   19 0.24822E+00     0.02896  1.0   0    0.00   0.12752E-07   0.00000E+00   0.00000E+00   0.25505E-07   0.00000E+00   0.00000E+00   0.00000E+00   0.00000E+00   0.00000E+00   0.00000E+00   0.00000E+00   0.00000E+00   0.00000E+00   0.00000E+00   0.00000E+00   0.00000E+00   0.00000E+00   0.00000E+00   0.00000E+00   0.00000E+00   0.00000E+00   0.31094E-05   0.00000E+00
   20 0.99652E+00     0.03095  1.0   0    0.00   0.62491E-07   0.00000E+00   0.00000E+00   0.12498E-06   0.00000E+00   0.00000E+00   0.00000E+00   0.00000E+00   0.00000E+00   0.00000E+00   0.00000E+00   0.00000E+00   0.00000E+00   0.00000E+00   0.00000E+00   0.00000E+00   0.00000E+00   0.00000E+00   0.00000E+00   0.00000E+00   0.00000E+00   0.15237E-04   0.00000E+00
   21 0.35029E+01     0.03307  1.0   0    0.00   0.26813E-06   0.00000E+00   0.00000E+00   0.53626E-06   0.00000E+00   0.00000E+00   0.00000E+00   0.00000E+00   0.00000E+00   0.00000E+00   0.00000E+00   0.00000E+00   0.00000E+00   0.00000E+00   0.00000E+00   0.00000E+00   0.00000E+00   0.00000E+00   0.00000E+00   0.00000E+00   0.00000E+00   0.65378E-04   0.00000E+00
   22 0.10781E+02     0.03535  1.0   0    0.00   0.10073E-05   0.00000E+00   0.00000E+00   0.20147E-05   0.00000E+00   0.00000E+00   0.00000E+00   0.00000E+00   0.00000E+00   0.00000E+00   0.00000E+00   0.00000E+00   0.00000E+00   0.00000E+00   0.00000E+00   0.00000E+00   0.00000E+00   0.00000E+00   0.00000E+00   0.00000E+00   0.00000E+00   0.24562E-03   0.00000E+00
   23 0.29055E+02     0.03778  1.0   0    0.00   0.33137E-05   0.00000E+00   0.00000E+00   0.66273E-05   0.00000E+00   0.00000E+00   0.00000E+00   0.00000E+00   0.00000E+00   0.00000E+00   0.00000E+00   0.00000E+00   0.00000E+00   0.00000E+00   0.00000E+00   0.00000E+00   0.00000E+00   0.00000E+00   0.00000E+00   0.00000E+00   0.00000E+00   0.80797E-03   0.00000E+00
   24 0.68561E+02     0.04037  1.0   0    0.00   0.95443E-05   0.00000E+00   0.00000E+00   0.19089E-04   0.00000E+00   0.00000E+00   0.00000E+00   0.00000E+00   0.00000E+00   0.00000E+00   0.00000E+00   0.00000E+00   0.00000E+00   0.00000E+00   0.00000E+00   0.00000E+00   0.00000E+00   0.00000E+00   0.00000E+00   0.00000E+00   0.00000E+00   0.23272E-02   0.00000E+00
   25 0.14165E+03     0.04315  1.0   0    0.00   0.24070E-04   0.00000E+00   0.00000E+00   0.48140E-04   0.00000E+00   0.00000E+00   0.00000E+00   0.00000E+00   0.00000E+00   0.00000E+00   0.00000E+00   0.00000E+00   0.00000E+00   0.00000E+00   0.00000E+00   0.00000E+00   0.00000E+00   0.00000E+00   0.00000E+00   0.00000E+00   0.00000E+00   0.58690E-02   0.00000E+00
   26 0.25626E+03     0.04611  1.0   0    0.00   0.53152E-04   0.00000E+00   0.00000E+00   0.10630E-03   0.00000E+00   0.00000E+00   0.00000E+00   0.00000E+00   0.00000E+00   0.00000E+00   0.00000E+00   0.00000E+00   0.00000E+00   0.00000E+00   0.00000E+00   0.00000E+00   0.00000E+00   0.00000E+00   0.00000E+00   0.00000E+00   0.00000E+00   0.12960E-01   0.00000E+00
   27 0.40592E+03     0.04928  1.0   0    0.00   0.10277E-03   0.00000E+00   0.00000E+00   0.20554E-03   0.00000E+00   0.00000E+00   0.00000E+00   0.00000E+00   0.00000E+00   0.00000E+00   0.00000E+00   0.00000E+00   0.00000E+00   0.00000E+00   0.00000E+00   0.00000E+00   0.00000E+00   0.00000E+00   0.00000E+00   0.00000E+00   0.00000E+00   0.25058E-01   0.00000E+00
   28 0.56299E+03     0.05267  1.0   0    0.00   0.17398E-03   0.00000E+00   0.00000E+00   0.34796E-03   0.00000E+00   0.00000E+00   0.00000E+00   0.00000E+00   0.00000E+00   0.00000E+00   0.00000E+00   0.00000E+00   0.00000E+00   0.00000E+00   0.00000E+00   0.00000E+00   0.00000E+00   0.00000E+00   0.00000E+00   0.00000E+00   0.00000E+00   0.42422E-01   0.00000E+00
   29 0.68370E+03     0.05628  1.0   0    0.00   0.25790E-03   0.00000E+00   0.00000E+00   0.51579E-03   0.00000E+00   0.00000E+00   0.00000E+00   0.00000E+00   0.00000E+00   0.00000E+00   0.00000E+00   0.00000E+00   0.00000E+00   0.00000E+00   0.00000E+00   0.00000E+00   0.00000E+00   0.00000E+00   0.00000E+00   0.00000E+00   0.00000E+00   0.62883E-01   0.00000E+00
   30 0.72699E+03     0.06015  1.0   0    0.00   0.33473E-03   0.00000E+00   0.00000E+00   0.66945E-03   0.00000E+00   0.00000E+00   0.00000E+00   0.00000E+00   0.00000E+00   0.00000E+00   0.00000E+00   0.00000E+00   0.00000E+00   0.00000E+00   0.00000E+00   0.00000E+00   0.00000E+00   0.00000E+00   0.00000E+00   0.00000E+00   0.00000E+00   0.81616E-01   0.00000E+00
   31 0.67685E+03     0.06428  1.0   0    0.00   0.38040E-03   0.00000E+00   0.00000E+00   0.76079E-03   0.00000E+00   0.00000E+00   0.00000E+00   0.00000E+00   0.00000E+00   0.00000E+00   0.00000E+00   0.00000E+00   0.00000E+00   0.00000E+00   0.00000E+00   0.00000E+00   0.00000E+00   0.00000E+00   0.00000E+00   0.00000E+00   0.00000E+00   0.92753E-01   0.00000E+00
   32 0.55178E+03     0.06870  1.0   0    0.00   0.37852E-03   0.00000E+00   0.00000E+00   0.75703E-03   0.00000E+00   0.00000E+00   0.00000E+00   0.00000E+00   0.00000E+00   0.00000E+00   0.00000E+00   0.00000E+00   0.00000E+00   0.00000E+00   0.00000E+00   0.00000E+00   0.00000E+00   0.00000E+00   0.00000E+00   0.00000E+00   0.00000E+00   0.92297E-01   0.00000E+00
   33 0.39388E+03     0.07342  1.0   0    0.00   0.32979E-03   0.00000E+00   0.00000E+00   0.65958E-03   0.00000E+00   0.00000E+00   0.00000E+00   0.00000E+00   0.00000E+00   0.00000E+00   0.00000E+00   0.00000E+00   0.00000E+00   0.00000E+00   0.00000E+00   0.00000E+00   0.00000E+00   0.00000E+00   0.00000E+00   0.00000E+00   0.00000E+00   0.80423E-01   0.00000E+00
   34 0.24624E+03     0.07847  1.0   0    0.00   0.25159E-03   0.00000E+00   0.00000E+00   0.50318E-03   0.00000E+00   0.00000E+00   0.00000E+00   0.00000E+00   0.00000E+00   0.00000E+00   0.00000E+00   0.00000E+00   0.00000E+00   0.00000E+00   0.00000E+00   0.00000E+00   0.00000E+00   0.00000E+00   0.00000E+00   0.00000E+00   0.00000E+00   0.61376E-01   0.00000E+00
   35 0.13491E+03     0.08386  1.0   0    0.00   0.16805E-03   0.00000E+00   0.00000E+00   0.33611E-03   0.00000E+00   0.00000E+00   0.00000E+00   0.00000E+00   0.00000E+00   0.00000E+00   0.00000E+00   0.00000E+00   0.00000E+00   0.00000E+00   0.00000E+00   0.00000E+00   0.00000E+00   0.00000E+00   0.00000E+00   0.00000E+00   0.00000E+00   0.41067E-01   0.00000E+00
   36 0.65011E+02     0.08962  1.0   0    0.00   0.98289E-04   0.00000E+00   0.00000E+00   0.19658E-03   0.00000E+00   0.00000E+00   0.00000E+00   0.00000E+00   0.00000E+00   0.00000E+00   0.00000E+00   0.00000E+00   0.00000E+00   0.00000E+00   0.00000E+00   0.00000E+00   0.00000E+00   0.00000E+00   0.00000E+00   0.00000E+00   0.00000E+00   0.24213E-01   0.00000E+00
   37 0.28063E+02     0.09578  1.0   0    0.00   0.50334E-04   0.00000E+00   0.00000E+00   0.10067E-03   0.00000E+00   0.00000E+00   0.00000E+00   0.00000E+00   0.00000E+00   0.00000E+00   0.00000E+00   0.00000E+00   0.00000E+00   0.00000E+00   0.00000E+00   0.00000E+00   0.00000E+00   0.00000E+00   0.00000E+00   0.00000E+00   0.00000E+00   0.12907E-01   0.00000E+00
   38 0.11889E+02     0.10236  1.0   0    0.00   0.22570E-04   0.00000E+00   0.00000E+00   0.45139E-04   0.00000E+00   0.00000E+00   0.00000E+00   0.00000E+00   0.00000E+00   0.00000E+00   0.00000E+00   0.00000E+00   0.00000E+00   0.00000E+00   0.00000E+00   0.00000E+00   0.00000E+00   0.00000E+00   0.00000E+00   0.00000E+00   0.00000E+00   0.70297E-02   0.00000E+00
   39 0.67894E+01     0.10939  1.0   0    0.00   0.88611E-05   0.00000E+00   0.00000E+00   0.17722E-04   0.00000E+00   0.00000E+00   0.00000E+00   0.00000E+00   0.00000E+00   0.00000E+00   0.00000E+00   0.00000E+00   0.00000E+00   0.00000E+00   0.00000E+00   0.00000E+00   0.00000E+00   0.00000E+00   0.00000E+00   0.00000E+00   0.00000E+00   0.56056E-02   0.00000E+00
   40 0.71259E+01     0.11691  1.0   0    0.00   0.30462E-05   0.00000E+00   0.00000E+00   0.60923E-05   0.00000E+00   0.00000E+00   0.00000E+00   0.00000E+00   0.00000E+00   0.00000E+00   0.00000E+00   0.00000E+00   0.00000E+00   0.00000E+00   0.00000E+00   0.00000E+00   0.00000E+00   0.00000E+00   0.00000E+00   0.00000E+00   0.00000E+00   0.80343E-02   0.00000E+00
   41 0.10345E+02     0.12494  1.0   0    0.00   0.91689E-06   0.00000E+00   0.00000E+00   0.18338E-05   0.00000E+00   0.00000E+00   0.00000E+00   0.00000E+00   0.00000E+00   0.00000E+00   0.00000E+00   0.00000E+00   0.00000E+00   0.00000E+00   0.00000E+00   0.00000E+00   0.00000E+00   0.00000E+00   0.00000E+00   0.00000E+00   0.00000E+00   0.14697E-01   0.00000E+00
   42 0.15487E+02     0.13353  1.0   0    0.00   0.24165E-06   0.00000E+00   0.00000E+00   0.48330E-06   0.00000E+00   0.00000E+00   0.00000E+00   0.00000E+00   0.00000E+00   0.00000E+00   0.00000E+00   0.00000E+00   0.00000E+00   0.00000E+00   0.00000E+00   0.00000E+00   0.00000E+00   0.00000E+00   0.00000E+00   0.00000E+00   0.00000E+00   0.27004E-01   0.00000E+00
   43 0.22093E+02     0.14270  1.0   0    0.00   0.55765E-07   0.00000E+00   0.00000E+00   0.11153E-06   0.00000E+00   0.00000E+00   0.00000E+00   0.00000E+00   0.00000E+00   0.00000E+00   0.00000E+00   0.00000E+00   0.00000E+00   0.00000E+00   0.00000E+00   0.00000E+00   0.00000E+00   0.00000E+00   0.00000E+00   0.00000E+00   0.00000E+00   0.47060E-01   0.00000E+00
   44 0.29628E+02     0.15251  1.0   0    0.00   0.11268E-07   0.00000E+00   0.00000E+00   0.22535E-07   0.00000E+00   0.00000E+00   0.00000E+00   0.00000E+00   0.00000E+00   0.00000E+00   0.00000E+00   0.00000E+00   0.00000E+00   0.00000E+00   0.00000E+00   0.00000E+00   0.00000E+00   0.00000E+00   0.00000E+00   0.00000E+00   0.00000E+00   0.77039E-01   0.00000E+00
   45 0.37274E+02     0.16299  1.0   0    0.00   0.19935E-08   0.00000E+00   0.00000E+00   0.39869E-08   0.00000E+00   0.00000E+00   0.00000E+00   0.00000E+00   0.00000E+00   0.00000E+00   0.00000E+00   0.00000E+00   0.00000E+00   0.00000E+00   0.00000E+00   0.00000E+00   0.00000E+00   0.00000E+00   0.00000E+00   0.00000E+00   0.00000E+00   0.11831E+00   0.00000E+00
   46 0.43982E+02     0.17419  1.0   0    0.00   0.30880E-09   0.00000E+00   0.00000E+00   0.61761E-09   0.00000E+00   0.00000E+00   0.00000E+00   0.00000E+00   0.00000E+00   0.00000E+00   0.00000E+00   0.00000E+00   0.00000E+00   0.00000E+00   0.00000E+00   0.00000E+00   0.00000E+00   0.00000E+00   0.00000E+00   0.00000E+00   0.00000E+00   0.17040E+00   0.00000E+00
   47 0.48671E+02     0.18616  1.0   0    0.00   0.41885E-10   0.00000E+00   0.00000E+00   0.83771E-10   0.00000E+00   0.00000E+00   0.00000E+00   0.00000E+00   0.00000E+00   0.00000E+00   0.00000E+00   0.00000E+00   0.00000E+00   0.00000E+00   0.00000E+00   0.00000E+00   0.00000E+00   0.00000E+00   0.00000E+00   0.00000E+00   0.00000E+00   0.23017E+00   0.00000E+00
   48 0.50514E+02     0.19895  1.0   0    0.00   0.49744E-11   0.00000E+00   0.00000E+00   0.99488E-11   0.00000E+00   0.00000E+00   0.00000E+00   0.00000E+00   0.00000E+00   0.00000E+00   0.00000E+00   0.00000E+00   0.00000E+00   0.00000E+00   0.00000E+00   0.00000E+00   0.00000E+00   0.00000E+00   0.00000E+00   0.00000E+00   0.00000E+00   0.29159E+00   0.00000E+00
   49 0.49169E+02     0.21262  1.0   0    0.00   0.51728E-12   0.00000E+00   0.00000E+00   0.10346E-11   0.00000E+00   0.00000E+00   0.00000E+00   0.00000E+00   0.00000E+00   0.00000E+00   0.00000E+00   0.00000E+00   0.00000E+00   0.00000E+00   0.00000E+00   0.00000E+00   0.00000E+00   0.00000E+00   0.00000E+00   0.00000E+00   0.00000E+00   0.34644E+00   0.00000E+00
   50 0.44885E+02     0.22723  1.0   0    0.00   0.47099E-13   0.00000E+00   0.00000E+00   0.94197E-13   0.00000E+00   0.00000E+00   0.00000E+00   0.00000E+00   0.00000E+00   0.00000E+00   0.00000E+00   0.00000E+00   0.00000E+00   0.00000E+00   0.00000E+00   0.00000E+00   0.00000E+00   0.00000E+00   0.00000E+00   0.00000E+00   0.00000E+00   0.38603E+00   0.00000E+00
   51 0.38429E+02     0.24284  1.0   0    0.00   0.37549E-14   0.00000E+00   0.00000E+00   0.75097E-14   0.00000E+00   0.00000E+00   0.00000E+00   0.00000E+00   0.00000E+00   0.00000E+00   0.00000E+00   0.00000E+00   0.00000E+00   0.00000E+00   0.00000E+00   0.00000E+00   0.00000E+00   0.00000E+00   0.00000E+00   0.00000E+00   0.00000E+00   0.40342E+00   0.00000E+00
   52 0.30856E+02     0.25953  1.0   0    0.00   0.26211E-15   0.00000E+00   0.00000E+00   0.52422E-15   0.00000E+00   0.00000E+00   0.00000E+00   0.00000E+00   0.00000E+00   0.00000E+00   0.00000E+00   0.00000E+00   0.00000E+00   0.00000E+00   0.00000E+00   0.00000E+00   0.00000E+00   0.00000E+00   0.00000E+00   0.00000E+00   0.00000E+00   0.39539E+00   0.00000E+00
   53 0.23236E+02     0.27736  1.0   0    0.00   0.16020E-16   0.00000E+00   0.00000E+00   0.32041E-16   0.00000E+00   0.00000E+00   0.00000E+00   0.00000E+00   0.00000E+00   0.00000E+00   0.00000E+00   0.00000E+00   0.00000E+00   0.00000E+00   0.00000E+00   0.00000E+00   0.00000E+00   0.00000E+00   0.00000E+00   0.00000E+00   0.00000E+00   0.36344E+00   0.00000E+00
   54 0.16411E+02     0.29642  1.0   0    0.00   0.85736E-18   0.00000E+00   0.00000E+00   0.17147E-17   0.00000E+00   0.00000E+00   0.00000E+00   0.00000E+00   0.00000E+00   0.00000E+00   0.00000E+00   0.00000E+00   0.00000E+00   0.00000E+00   0.00000E+00   0.00000E+00   0.00000E+00   0.00000E+00   0.00000E+00   0.00000E+00   0.00000E+00   0.31332E+00   0.00000E+00
   55 0.10870E+02     0.31679  1.0   0    0.00   0.40175E-19   0.00000E+00   0.00000E+00   0.80351E-19   0.00000E+00   0.00000E+00   0.00000E+00   0.00000E+00   0.00000E+00   0.00000E+00   0.00000E+00   0.00000E+00   0.00000E+00   0.00000E+00   0.00000E+00   0.00000E+00   0.00000E+00   0.00000E+00   0.00000E+00   0.00000E+00   0.00000E+00   0.25332E+00   0.00000E+00
   56 0.67525E+01     0.33856  1.0   0    0.00   0.16484E-20   0.00000E+00   0.00000E+00   0.32967E-20   0.00000E+00   0.00000E+00   0.00000E+00   0.00000E+00   0.00000E+00   0.00000E+00   0.00000E+00   0.00000E+00   0.00000E+00   0.00000E+00   0.00000E+00   0.00000E+00   0.00000E+00   0.00000E+00   0.00000E+00   0.00000E+00   0.00000E+00   0.19208E+00   0.00000E+00
   57 0.39340E+01     0.36182  1.0   0    0.00   0.59217E-22   0.00000E+00   0.00000E+00   0.11843E-21   0.00000E+00   0.00000E+00   0.00000E+00   0.00000E+00   0.00000E+00   0.00000E+00   0.00000E+00   0.00000E+00   0.00000E+00   0.00000E+00   0.00000E+00   0.00000E+00   0.00000E+00   0.00000E+00   0.00000E+00   0.00000E+00   0.00000E+00   0.13660E+00   0.00000E+00
   58 0.21496E+01     0.38668  1.0   0    0.00   0.18627E-23   0.00000E+00   0.00000E+00   0.37255E-23   0.00000E+00   0.00000E+00   0.00000E+00   0.00000E+00   0.00000E+00   0.00000E+00   0.00000E+00   0.00000E+00   0.00000E+00   0.00000E+00   0.00000E+00   0.00000E+00   0.00000E+00   0.00000E+00   0.00000E+00   0.00000E+00   0.00000E+00   0.91103E-01   0.00000E+00
   59 0.11015E+01     0.41325  1.0   0    0.00   0.51304E-25   0.00000E+00   0.00000E+00   0.10261E-24   0.00000E+00   0.00000E+00   0.00000E+00   0.00000E+00   0.00000E+00   0.00000E+00   0.00000E+00   0.00000E+00   0.00000E+00   0.00000E+00   0.00000E+00   0.00000E+00   0.00000E+00   0.00000E+00   0.00000E+00   0.00000E+00   0.00000E+00   0.56985E-01   0.00000E+00
   60 0.52939E+00     0.44165  1.0   0    0.00   0.12372E-26   0.00000E+00   0.00000E+00   0.24745E-26   0.00000E+00   0.00000E+00   0.00000E+00   0.00000E+00   0.00000E+00   0.00000E+00   0.00000E+00   0.00000E+00   0.00000E+00   0.00000E+00   0.00000E+00   0.00000E+00   0.00000E+00   0.00000E+00   0.00000E+00   0.00000E+00   0.00000E+00   0.33429E-01   0.00000E+00
   61 0.23862E+00     0.47199  1.0   0    0.00   0.26126E-28   0.00000E+00   0.00000E+00   0.52251E-28   0.00000E+00   0.00000E+00   0.00000E+00   0.00000E+00   0.00000E+00   0.00000E+00   0.00000E+00   0.00000E+00   0.00000E+00   0.00000E+00   0.00000E+00   0.00000E+00   0.00000E+00   0.00000E+00   0.00000E+00   0.00000E+00   0.00000E+00   0.18392E-01   0.00000E+00
   62 0.10087E+00     0.50442  1.0   0    0.00   0.48303E-30   0.00000E+00   0.00000E+00   0.96606E-30   0.00000E+00   0.00000E+00   0.00000E+00   0.00000E+00   0.00000E+00   0.00000E+00   0.00000E+00   0.00000E+00   0.00000E+00   0.00000E+00   0.00000E+00   0.00000E+00   0.00000E+00   0.00000E+00   0.00000E+00   0.00000E+00   0.00000E+00   0.94901E-02   0.00000E+00
   63 0.39990E-01     0.53908  1.0   0    0.00   0.78195E-32   0.00000E+00   0.00000E+00   0.15639E-31   0.00000E+00   0.00000E+00   0.00000E+00   0.00000E+00   0.00000E+00   0.00000E+00   0.00000E+00   0.00000E+00   0.00000E+00   0.00000E+00   0.00000E+00   0.00000E+00   0.00000E+00   0.00000E+00   0.00000E+00   0.00000E+00   0.00000E+00   0.45925E-02   0.00000E+00
   64 0.14869E-01     0.57613  1.0   0    0.00   0.11084E-33   0.00000E+00   0.00000E+00   0.22168E-33   0.00000E+00   0.00000E+00   0.00000E+00   0.00000E+00   0.00000E+00   0.00000E+00   0.00000E+00   0.00000E+00   0.00000E+00   0.00000E+00   0.00000E+00   0.00000E+00   0.00000E+00   0.00000E+00   0.00000E+00   0.00000E+00   0.00000E+00   0.20843E-02   0.00000E+00
   65 0.51850E-02     0.61571  1.0   0    0.00   0.13756E-35   0.00000E+00   0.00000E+00   0.27513E-35   0.00000E+00   0.00000E+00   0.00000E+00   0.00000E+00   0.00000E+00   0.00000E+00   0.00000E+00   0.00000E+00   0.00000E+00   0.00000E+00   0.00000E+00   0.00000E+00   0.00000E+00   0.00000E+00   0.00000E+00   0.00000E+00   0.00000E+00   0.88719E-03   0.00000E+00
   66 0.16957E-02     0.65802  1.0   0    0.00   0.14949E-37   0.00000E+00   0.00000E+00   0.29899E-37   0.00000E+00   0.00000E+00   0.00000E+00   0.00000E+00   0.00000E+00   0.00000E+00   0.00000E+00   0.00000E+00   0.00000E+00   0.00000E+00   0.00000E+00   0.00000E+00   0.00000E+00   0.00000E+00   0.00000E+00   0.00000E+00   0.00000E+00   0.35416E-03   0.00000E+00
   67 0.52012E-03     0.70324  1.0   0    0.00   0.00000E+00   0.00000E+00   0.00000E+00   0.00000E+00   0.00000E+00   0.00000E+00   0.00000E+00   0.00000E+00   0.00000E+00   0.00000E+00   0.00000E+00   0.00000E+00   0.00000E+00   0.00000E+00   0.00000E+00   0.00000E+00   0.00000E+00   0.00000E+00   0.00000E+00   0.00000E+00   0.00000E+00   0.13260E-03   0.00000E+00
   68 0.14962E-03     0.75156  1.0   0    0.00   0.00000E+00   0.00000E+00   0.00000E+00   0.00000E+00   0.00000E+00   0.00000E+00   0.00000E+00   0.00000E+00   0.00000E+00   0.00000E+00   0.00000E+00   0.00000E+00   0.00000E+00   0.00000E+00   0.00000E+00   0.00000E+00   0.00000E+00   0.00000E+00   0.00000E+00   0.00000E+00   0.00000E+00   0.46558E-04   0.00000E+00
   69 0.40364E-04     0.80320  1.0   0    0.00   0.00000E+00   0.00000E+00   0.00000E+00   0.00000E+00   0.00000E+00   0.00000E+00   0.00000E+00   0.00000E+00   0.00000E+00   0.00000E+00   0.00000E+00   0.00000E+00   0.00000E+00   0.00000E+00   0.00000E+00   0.00000E+00   0.00000E+00   0.00000E+00   0.00000E+00   0.00000E+00   0.00000E+00   0.15332E-04   0.00000E+00
   70 0.10213E-04     0.85839  1.0   0    0.00   0.00000E+00   0.00000E+00   0.00000E+00   0.00000E+00   0.00000E+00   0.00000E+00   0.00000E+00   0.00000E+00   0.00000E+00   0.00000E+00   0.00000E+00   0.00000E+00   0.00000E+00   0.00000E+00   0.00000E+00   0.00000E+00   0.00000E+00   0.00000E+00   0.00000E+00   0.00000E+00   0.00000E+00   0.47351E-05   0.00000E+00
